Instance Name : rc203
Date : 2022-07-18
Solution
Route 1 : 81 42 36 39 54 96 94 62 95 64 20 19 23 21 48 18 89 76 63 85 84 51 49 22 57 52 66 56 90 68 61 37 35 72 71 93 80
Route 2 : 45 46 7 73 16 15 11 82 69 98 88 60 79 78 53 99 86 87 9 10 12 14 47 17 13 74 59 97 75 58 77 25 24 83
Route 3 : 65 91 92 50 34 31 29 27 26 28 33 32 30 67 44 43 40 38 41 1 3 5 8 6 4 2 55 100 70
